
List of user-set options:

                                    Name   Value                used
                           compl_inf_tol = 1                     yes
                         constr_viol_tol = 1                     yes
                            dual_inf_tol = 1000                  yes
                           linear_solver = ma97                  yes
                              ma86_small = 1e-30                  no
                                  ma86_u = 0.0001                 no
                              ma97_order = best                  yes
                              ma97_small = 1e-30                 yes
                            ma97_switch1 = at_start              yes
                            ma97_switch2 = od_hd_reuse           yes
                                  ma97_u = 1e-06                 yes
                               ma97_umax = 0.5                   yes
                                max_iter = 1000                  yes
                    max_refinement_steps = 20                    yes
                    min_refinement_steps = 5                     yes
                                 mu_init = 1e-06                 yes
           mu_superlinear_decrease_power = 1.25                  yes
                   nlp_scaling_min_value = 1e-08                 yes
                        option_file_name = Preset_Case:_405_NCP.opt  yes
                             output_file = ./tmp/Preset_Case:_405_NCP.output  yes
                      print_user_options = yes                   yes
        required_infeasibility_reduction = 1                      no
                                     tol = 1e-08                 yes
                   warm_start_bound_frac = 1e-20                 yes
                   warm_start_bound_push = 1e-20                 yes
                   warm_start_init_point = yes                   yes
              warm_start_mult_bound_push = 1e-20                 yes
                warm_start_mult_init_max = 1e+40                 yes
             warm_start_slack_bound_frac = 1e-20                 yes
             warm_start_slack_bound_push = 1e-20                 yes

******************************************************************************
This program contains Ipopt, a library for large-scale nonlinear optimization.
 Ipopt is released as open source code under the Eclipse Public License (EPL).
         For more information visit http://projects.coin-or.org/Ipopt
******************************************************************************

This is Ipopt version 3.12.10, running with linear solver ma97.

Number of nonzeros in equality constraint Jacobian...:   117167
Number of nonzeros in inequality constraint Jacobian.:      213
Number of nonzeros in Lagrangian Hessian.............:    47513

Total number of variables............................:    29977
                     variables with only lower bounds:    11312
                variables with lower and upper bounds:    15135
                     variables with only upper bounds:        0
Total number of equality constraints.................:    29864
Total number of inequality constraints...............:       25
        inequality constraints with only lower bounds:        4
   inequality constraints with lower and upper bounds:        0
        inequality constraints with only upper bounds:       21

iter    objective    inf_pr   inf_du lg(mu)  ||d||  lg(rg) alpha_du alpha_pr  ls
   0 -1.5639051e-01 2.54e-01 2.00e+00  -6.0 0.00e+00    -  0.00e+00 0.00e+00   0
In iteration 0, 8 Slacks too small, adjusting variable bounds
   1 -1.5639051e-01 2.54e-01 1.14e+03  -6.0 1.11e+10    -  1.14e-13 2.05e-18h  1
   2 -1.5639028e-01 2.54e-01 1.35e+03  -6.0 8.63e+01    -  1.00e-02 7.44e-06f  1
   3 -1.5638398e-01 2.54e-01 1.31e+03  -6.0 6.80e+01    -  1.90e-02 2.25e-04h  1
   4 -1.5554984e-01 2.46e-01 1.24e+03  -6.0 7.06e+01    -  5.12e-02 3.16e-02h  1
   5 -1.5494877e-01 2.41e-01 1.24e+03  -6.0 6.97e+01    -  5.99e-03 2.23e-02h  2
   6 -1.5445765e-01 2.36e-01 1.07e+03  -6.0 1.18e+02    -  1.05e-01 1.71e-02h  2
   7 -1.5404066e-01 2.33e-01 1.02e+03  -6.0 8.89e+01    -  3.63e-02 1.55e-02h  2
   8 -1.5345773e-01 2.28e-01 9.21e+02  -6.0 1.12e+02    -  1.67e-01 2.12e-02h  1
   9 -1.5311803e-01 2.25e-01 2.53e+04  -6.0 1.17e+02    -  5.09e-02 1.25e-02h  4
iter    objective    inf_pr   inf_du lg(mu)  ||d||  lg(rg) alpha_du alpha_pr  ls
  10 -1.5273795e-01 2.22e-01 4.05e+04  -6.0 1.15e+02    -  4.02e-02 1.39e-02h  3
  11 -1.5239844e-01 2.19e-01 1.43e+05  -6.0 1.13e+02    -  2.00e-01 1.25e-02h  4
  12 -1.5219130e-01 2.18e-01 2.00e+05  -6.0 1.12e+02    -  2.15e-01 7.33e-03h  5
  13 -1.5194109e-01 2.16e-01 2.15e+05  -6.0 1.22e+02    -  2.32e-01 8.41e-03h  5
  14 -1.5178199e-01 2.15e-01 2.08e+05  -6.0 1.39e+02    -  1.26e-01 5.07e-03h  6
  15 -1.5160008e-01 2.13e-01 1.89e+05  -6.0 1.50e+02    -  1.92e-01 5.67e-03h  6
  16 -1.5137323e-01 2.12e-01 1.67e+05  -6.0 1.69e+02    -  1.61e-01 6.85e-03h  6
  17 -1.5113835e-01 2.10e-01 1.37e+05  -6.0 1.84e+02    -  1.97e-01 6.97e-03h  6
  18 -1.5099292e-01 2.10e-01 1.05e+05  -6.0 2.04e+02    -  2.01e-01 4.24e-03h  7
  19 -1.3633817e-01 1.40e+01 8.30e+04  -6.0 2.23e+02    -  2.82e-01 4.22e-01w  1
iter    objective    inf_pr   inf_du lg(mu)  ||d||  lg(rg) alpha_du alpha_pr  ls
  20 -1.3626869e-01 1.40e+01 3.78e+04  -6.0 1.59e+02    -  2.02e-01 4.16e-03w  1
  21 -1.3040028e-01 1.05e+01 1.92e+04  -6.0 1.67e+02    -  5.04e-01 5.69e-01w  1
  22 -1.5076393e-01 2.08e-01 5.97e+04  -6.0 1.32e+02    -  2.82e-01 6.60e-03h  6
  23 -1.5060835e-01 2.07e-01 2.16e+04  -6.0 2.50e+02    -  2.49e-01 4.45e-03h  8
  24 -1.5045113e-01 2.06e-01 6.63e+03  -6.0 2.71e+02    -  1.13e-01 4.51e-03h  8
  25 -1.5029381e-01 2.05e-01 8.92e+03  -6.0 2.78e+02    -  1.11e-01 4.55e-03h  8
  26 -1.5013610e-01 2.04e-01 2.87e+04  -6.0 2.86e+02    -  1.49e-01 4.58e-03h  8
  27 -1.4997745e-01 2.03e-01 2.81e+04  -6.0 2.98e+02    -  1.16e-03 4.64e-03h  8
  28 -1.4990276e-01 2.03e-01 2.75e+04  -6.0 3.09e+02    -  8.78e-02 2.08e-03h  6
  29 -1.4981660e-01 2.03e-01 2.74e+04  -6.0 3.20e+02    -  2.40e-03 2.48e-03h  6
iter    objective    inf_pr   inf_du lg(mu)  ||d||  lg(rg) alpha_du alpha_pr  ls
  30 -1.4972349e-01 2.01e-01 2.72e+04  -6.0 4.92e+01  -2.0 4.24e-02 6.40e-03h  1
  31 -1.4953793e-01 2.00e-01 2.63e+04  -6.0 3.65e+02    -  4.29e-06 5.07e-03h  6
  32 -1.4951725e-01 2.00e-01 2.62e+04  -6.0 4.75e+01  -2.5 1.35e-01 1.15e-03h  1
  33 -1.4945653e-01 2.00e-01 2.60e+04  -6.0 4.80e+02    -  1.10e-04 1.28e-03h  1
  34 -1.4945605e-01 2.00e-01 4.92e+04  -6.0 4.53e+01  -3.0 2.34e-01 1.68e-05h  1
  35 -1.4916083e-01 2.00e-01 4.72e+04  -6.0 8.42e+03    -  9.30e-03 1.03e-03h  1
  36 -1.4907654e-01 1.99e-01 4.69e+04  -6.0 2.87e+02    -  5.27e-03 2.59e-03h  8
  37 -1.4907267e-01 1.99e-01 4.65e+04  -6.0 6.31e+03    -  1.49e-03 2.36e-05f  5
  38 -1.4890448e-01 1.98e-01 4.66e+04  -6.0 6.42e+01  -3.4 5.48e-03 3.81e-03h  7
  39 -1.4882060e-01 1.98e-01 4.96e+04  -6.0 1.25e+02  -3.9 4.09e-02 1.70e-03h  5
iter    objective    inf_pr   inf_du lg(mu)  ||d||  lg(rg) alpha_du alpha_pr  ls
  40 -1.4864164e-01 1.97e-01 4.92e+04  -6.0 6.50e+01  -3.5 2.86e-03 4.03e-03h  7
  41 -1.4856632e-01 1.97e-01 4.92e+04  -6.0 1.17e+02  -4.0 3.28e-03 1.52e-03h  5
  42 -1.4855583e-01 1.97e-01 4.89e+04  -6.0 9.52e+02  -4.4 4.21e-03 9.78e-05h  2
  43 -1.4850075e-01 1.97e-01 5.21e+04  -6.0 1.11e+02  -4.0 4.85e-02 1.10e-03h  5
  44 -1.4830954e-01 1.96e-01 5.17e+04  -6.0 6.43e+01  -3.6 3.12e-03 4.23e-03h  7
  45 -1.4819237e-01 1.95e-01 5.29e+04  -6.0 1.01e+02  -4.1 2.26e-02 2.35e-03h  4
  46 -1.4815626e-01 1.95e-01 5.24e+04  -6.0 1.12e+03  -4.5 3.92e-03 2.93e-04h  1
  47 -1.4808253e-01 1.95e-01 5.27e+04  -6.0 1.10e+02  -4.1 6.39e-03 1.49e-03h  4
  48 -1.4785998e-01 1.94e-01 5.59e+04  -6.0 6.08e+01  -3.7 3.38e-02 4.99e-03h  7
  49 -1.4779947e-01 1.94e-01 5.65e+04  -6.0 1.20e+02  -4.2 1.36e-02 1.15e-03h  3
iter    objective    inf_pr   inf_du lg(mu)  ||d||  lg(rg) alpha_du alpha_pr  ls
  50 -1.4755688e-01 1.93e-01 6.53e+04  -6.0 6.16e+01  -3.7 8.07e-02 5.27e-03h  7
  51 -1.4746411e-01 1.92e-01 6.56e+04  -6.0 1.31e+02  -4.2 1.19e-02 1.72e-03h  2
  52 -1.4733055e-01 1.92e-01 6.67e+04  -6.0 6.68e+01  -3.8 1.32e-02 2.93e-03h  8
  53 -1.4728057e-01 1.92e-01 6.68e+04  -6.0 2.61e+02  -4.3 7.09e-03 6.97e-04h  1
  54 -1.4707759e-01 1.91e-01 6.68e+04  -6.0 7.00e+01  -3.8 7.59e-03 4.63e-03h  7
  55 -1.4701617e-01 1.91e-01 6.80e+04  -6.0 1.70e+02  -4.3 3.48e-02 1.17e-03h  1
  56 -1.4674994e-01 1.90e-01 8.01e+04  -6.0 7.53e+01  -3.9 1.26e-01 5.77e-03h  7
  57 -1.4656526e-01 1.88e-01 8.19e+04  -6.0 1.61e+02  -3.5 1.98e-02 8.99e-03h  3
  58 -1.4637262e-01 1.87e-01 1.17e+05  -6.0 8.47e+01  -3.9 3.25e-01 4.27e-03h  7
  59 -1.4628236e-01 1.87e-01 1.17e+05  -6.0 1.59e+02  -4.4 4.10e-02 2.35e-03h  6
iter    objective    inf_pr   inf_du lg(mu)  ||d||  lg(rg) alpha_du alpha_pr  ls
  60 -1.4621104e-01 1.86e-01 1.12e+05  -6.0 2.51e+02  -4.9 5.15e-02 2.83e-03h  5
  61 -1.4610027e-01 1.85e-01 1.12e+05  -6.0 1.67e+02  -4.5 1.02e-01 3.06e-03h  6
  62 -1.4604629e-01 1.85e-01 1.05e+05  -6.0 2.53e+02  -4.9 7.80e-02 2.53e-03h  6
  63 -1.4593195e-01 1.84e-01 1.04e+05  -6.0 1.72e+02  -4.5 7.76e-02 3.41e-03h  7
  64 -1.4587739e-01 1.84e-01 9.09e+04  -6.0 2.50e+02  -5.0 1.68e-01 3.12e-03h  7
  65 -1.4577190e-01 1.83e-01 9.07e+04  -6.0 1.76e+02  -4.6 2.40e-02 4.15e-03h  8
  66 -1.2874257e-01 2.80e+01 2.01e+04  -6.0 1.16e+02  -4.1 2.86e-01 5.39e-01w  1
  67 -1.4245952e-01 2.64e+01 1.63e+04  -6.0 9.89e+02  -4.6 3.32e-02 6.22e-02w  1
  68 -1.4245976e-01 2.64e+01 6.16e+04  -6.0 3.58e+02  -5.1 2.03e-02 1.39e-05w  1
  69 -1.4563886e-01 1.82e-01 1.16e+05  -6.0 1.66e+02  -4.7 2.86e-01 4.21e-03h  7
iter    objective    inf_pr   inf_du lg(mu)  ||d||  lg(rg) alpha_du alpha_pr  ls
  70 -1.4556006e-01 1.82e-01 1.22e+05  -6.0 1.26e+02  -4.2 9.41e-02 2.37e-03h  9
  71 -1.4553178e-01 1.81e-01 1.20e+05  -6.0 2.13e+02  -4.7 4.03e-02 4.45e-03h  7
  72 -1.4540705e-01 1.80e-01 1.36e+05  -6.0 1.35e+02  -4.3 2.72e-01 4.15e-03h  8
  73 -1.5840573e-01 7.86e+00 1.26e+05  -6.0 1.00e+04  -4.8 5.45e-05 7.35e-03h  1
  74 -1.5754816e-01 7.55e+00 2.30e+05  -6.0 5.88e+01  -3.4 3.40e-01 3.72e-02h  4
  75 -1.6595721e-01 6.45e+00 1.11e+05  -6.0 1.35e+02  -3.9 2.46e-02 2.68e-01h  1
  76 -1.6595733e-01 6.45e+00 2.96e+05  -6.0 4.63e+01  -2.6 5.30e-02 4.00e-05h  1
  77 -1.6594723e-01 6.39e+00 1.41e+05  -6.0 4.15e+01  -3.1 4.03e-03 9.70e-03h  1
  78 -1.6590406e-01 6.08e+00 1.24e+06  -6.0 4.91e+01  -3.6 7.97e-03 4.72e-02h  1
  79r-1.6590406e-01 6.08e+00 1.00e+03   0.5 0.00e+00  -3.1 0.00e+00 1.47e-07R  2
iter    objective    inf_pr   inf_du lg(mu)  ||d||  lg(rg) alpha_du alpha_pr  ls
  80r-1.6571672e-01 6.07e+00 1.00e+03   0.5 3.57e+04    -  1.18e-06 8.75e-07f  1
  81 -1.6571812e-01 6.06e+00 3.77e+02  -6.0 9.20e+01    -  5.71e-06 2.15e-03h  1
  82 -1.6568250e-01 6.03e+00 3.75e+02  -6.0 6.74e+01    -  2.51e-03 4.89e-03h  1
  83 -1.6563544e-01 5.99e+00 3.73e+02  -6.0 6.71e+01    -  6.27e-03 6.52e-03h  1
  84 -1.6540101e-01 5.79e+00 3.60e+02  -6.0 6.67e+01    -  3.17e-02 3.30e-02h  1
  85 -1.6535721e-01 5.75e+00 3.58e+02  -6.0 6.46e+01    -  7.25e-02 6.69e-03h  1
  86 -1.6447662e-01 4.87e+00 2.28e+04  -6.0 6.50e+01    -  8.30e-02 1.50e-01h  1
  87 -1.6420770e-01 4.56e+00 5.55e+03  -6.0 5.37e+01    -  1.28e-01 6.34e-02h  1
  88 -1.6354036e-01 3.48e+00 4.54e+04  -6.0 4.68e+01    -  7.64e-02 2.29e-01h  1
  89 -1.6360298e-01 3.00e+00 3.60e+04  -6.0 3.23e+01    -  1.51e-01 1.37e-01h  1
iter    objective    inf_pr   inf_du lg(mu)  ||d||  lg(rg) alpha_du alpha_pr  ls
  90 -1.6390048e-01 2.11e+00 2.84e+04  -6.0 3.65e+01    -  2.62e-01 3.49e-01h  1
  91 -1.6458949e-01 1.58e+00 2.05e+04  -6.0 1.91e+01  -2.7 2.62e-01 2.65e-01h  1
  92 -1.6274213e-01 7.12e-01 3.07e+04  -6.0 2.95e+01    -  3.51e-01 5.45e-01h  1
  93 -1.6080974e-01 1.20e-01 1.05e+05  -6.0 1.68e+01    -  2.80e-01 8.54e-01h  1
  94 -1.6061504e-01 6.86e-03 3.99e+03  -6.0 2.01e+00    -  7.77e-01 1.00e+00h  1
  95 -1.6175762e-01 5.12e-03 6.01e+02  -6.0 2.38e+00    -  9.56e-01 1.00e+00h  1
  96 -1.6346134e-01 2.02e-02 3.11e+02  -6.0 4.34e+01    -  4.81e-01 1.08e-01h  1
  97 -1.6782571e-01 1.83e-01 2.95e+02  -6.0 7.11e+01    -  4.38e-01 2.19e-01h  1
  98 -1.7125619e-01 3.38e-01 3.20e+02  -6.0 8.85e+01    -  1.80e-01 1.55e-01h  1
  99 -1.7294589e-01 3.69e-01 3.73e+03  -6.0 9.32e+01    -  3.43e-01 8.14e-02f  1
iter    objective    inf_pr   inf_du lg(mu)  ||d||  lg(rg) alpha_du alpha_pr  ls
 100 -1.7783731e-01 8.78e-01 4.83e+03  -6.0 1.27e+02    -  2.92e-01 2.25e-01h  1
 101 -1.8264028e-01 1.46e+00 9.02e+05  -6.0 1.82e+02    -  4.14e-03 2.62e-01h  1
 102 -1.8544834e-01 1.40e+00 6.91e+05  -6.0 1.76e+02    -  1.70e-01 2.34e-01h  1
 103 -1.8585205e-01 1.33e+00 6.54e+05  -6.0 1.71e+02    -  6.79e-01 5.35e-02h  1
 104 -1.9025240e-01 7.95e-01 3.70e+05  -6.0 4.28e+02    -  7.78e-01 4.32e-01h  1
 105 -1.8971842e-01 2.89e-01 1.35e+05  -6.0 4.46e-01  -3.2 5.85e-03 6.36e-01h  1
 106 -1.8968390e-01 2.40e-01 1.12e+05  -6.0 2.26e-01  -3.7 6.96e-01 1.70e-01h  1
 107 -1.8941727e-01 1.34e-03 7.51e+01  -6.0 5.12e-01  -4.1 1.00e+00 1.00e+00h  1
 108 -1.8956090e-01 2.59e-03 1.44e+01  -6.0 1.42e+00  -4.6 1.00e+00 8.06e-01h  1
 109 -1.8986592e-01 5.86e-03 1.18e+00  -6.0 3.58e+00  -5.1 1.00e+00 9.13e-01f  1
iter    objective    inf_pr   inf_du lg(mu)  ||d||  lg(rg) alpha_du alpha_pr  ls
 110 -1.9027408e-01 1.57e-02 5.97e-01  -6.0 5.68e+00  -5.6 1.00e+00 1.00e+00f  1
 111 -1.9079475e-01 4.64e-02 1.61e+00  -6.0 8.16e+00  -6.0 1.00e+00 1.00e+00h  1
 112 -1.9117531e-01 3.30e-01 2.52e+00  -6.0 4.01e+01  -6.5 7.66e-01 1.00e+00h  1
 113 -1.9175409e-01 2.86e-01 1.44e+01  -6.0 2.38e+01  -6.1 2.43e-01 1.00e+00h  1
 114 -1.9191367e-01 3.29e-01 1.89e+01  -6.0 1.43e+01  -5.7 1.00e+00 1.79e-01h  1
 115 -1.9258625e-01 3.91e+00 1.17e+01  -6.0 1.16e+01  -6.1 1.51e-01 1.00e+00f  1
 116 -1.9284744e-01 4.34e+00 3.46e+01  -6.0 8.52e+01  -6.6 5.10e-01 4.74e-02h  1
 117 -1.9321714e-01 5.33e+00 2.13e+01  -6.0 5.61e+01  -7.1 2.71e-01 1.12e-01h  1
 118 -1.9351715e-01 4.39e+00 1.08e+01  -6.0 1.39e+02  -7.6 5.52e-01 1.76e-01h  1
 119 -1.9483058e-01 3.14e+00 7.95e+00  -6.0 3.81e+02  -8.1 1.00e+00 2.92e-01h  1
iter    objective    inf_pr   inf_du lg(mu)  ||d||  lg(rg) alpha_du alpha_pr  ls
 120 -1.9684597e-01 2.62e+00 1.38e+01  -6.0 9.65e+02  -8.5 4.82e-01 1.75e-01h  1
 121 -2.0076228e-01 1.79e+00 3.47e+00  -6.0 3.81e+02  -8.1 6.97e-03 7.79e-01h  1
 122 -2.0627620e-01 1.96e+00 2.80e+01  -6.0 3.31e+03  -8.6 5.41e-01 2.45e-01h  1
 123 -2.0829659e-01 2.07e+00 2.75e+01  -6.0 1.59e+03  -8.2 1.23e-01 9.96e-02h  1
 124 -2.1281761e-01 2.66e+00 3.43e+01  -6.0 1.35e+04  -8.6 4.24e-02 6.35e-02h  1
 125 -2.1357519e-01 2.35e+00 3.09e+01  -6.0 2.21e+02  -7.3 5.49e-02 1.08e-01h  1
 126 -2.1450124e-01 2.26e+00 3.13e+01  -6.0 1.52e+04  -7.8 2.73e-03 5.54e-03h  1
 127 -2.1543215e-01 2.04e+00 2.98e+01  -6.0 7.48e+02  -7.4 1.07e-01 6.22e-02h  1
 128 -2.1559051e-01 1.96e+00 2.87e+01  -6.0 1.47e+01  -6.0 1.00e+00 3.59e-02h  1
 129 -2.1659098e-01 1.48e+00 2.39e+01  -6.0 5.75e+01  -6.5 6.73e-02 1.93e-01h  1
iter    objective    inf_pr   inf_du lg(mu)  ||d||  lg(rg) alpha_du alpha_pr  ls
 130 -2.1675048e-01 1.40e+00 2.28e+01  -6.0 1.55e+01  -6.1 8.53e-01 4.81e-02h  1
 131 -2.1718053e-01 1.26e+00 2.10e+01  -6.0 7.68e+01  -6.6 1.42e-01 8.21e-02h  1
 132 -2.1780537e-01 9.36e-01 1.49e+01  -6.0 5.11e+01  -7.0 6.97e-01 3.51e-01h  1
 133 -2.1857250e-01 1.61e+00 1.46e+02  -6.0 5.22e+01  -6.6 5.87e-03 1.00e+00h  1
 134 -2.1867327e-01 1.32e+00 9.93e+01  -6.0 1.99e+01  -6.2 7.26e-01 1.92e-01h  1
 135 -2.1976777e-01 6.59e-01 5.54e+01  -6.0 2.94e+01  -6.7 5.75e-01 9.49e-01h  1
 136 -2.1993497e-01 5.81e-01 5.24e+01  -6.0 6.77e+01  -7.1 3.46e-01 1.01e-01h  1
 137 -2.2001936e-01 5.12e-01 5.07e+01  -6.0 5.71e+01  -6.7 5.12e-01 1.19e-01h  1
 138 -2.2105599e-01 6.06e-01 1.57e+01  -6.0 6.92e+01  -7.2 1.00e+00 8.68e-01h  1
 139 -2.2122551e-01 5.77e-01 4.17e+01  -6.0 1.88e+02  -7.7 4.25e-01 5.59e-02h  1
iter    objective    inf_pr   inf_du lg(mu)  ||d||  lg(rg) alpha_du alpha_pr  ls
 140 -2.2230557e-01 4.54e-01 2.40e+01  -6.0 4.00e+02  -8.1 1.00e+00 2.13e-01h  1
 141 -2.2371257e-01 7.36e-01 1.70e+01  -6.0 8.96e+02  -8.6 6.12e-03 1.47e-01h  1
 142 -2.2657207e-01 1.80e+00 2.82e+01  -6.0 4.40e+02  -8.2 9.31e-02 7.08e-01h  1
 143 -2.2673711e-01 1.21e+00 1.73e+01  -6.0 4.51e+00  -6.0 4.58e-01 3.25e-01h  1
 144 -2.2727091e-01 4.57e-01 1.54e+01  -6.0 1.13e+01  -6.4 4.90e-02 1.00e+00f  1
 145 -2.2737705e-01 4.46e-01 5.27e+00  -6.0 6.25e+01  -6.9 8.03e-01 1.06e-01h  1
 146 -2.2739189e-01 4.42e-01 1.16e+01  -6.0 8.31e+01  -7.4 3.64e-01 9.24e-03h  1
 147 -2.2807387e-01 3.76e-01 6.76e+00  -6.0 2.98e+02  -7.9 6.31e-02 1.64e-01f  1
 148 -2.2809151e-01 3.79e-01 5.60e+00  -6.0 4.79e+01  -6.5 2.17e-01 5.34e-02f  1
 149 -2.2850603e-01 2.88e-01 7.56e+00  -6.0 8.82e+01  -7.0 2.15e-01 4.21e-01h  1
iter    objective    inf_pr   inf_du lg(mu)  ||d||  lg(rg) alpha_du alpha_pr  ls
 150 -2.2898066e-01 1.73e-01 7.00e+00  -6.0 8.47e+01  -7.5 6.39e-01 3.99e-01h  1
 151 -2.2985241e-01 3.61e-01 9.75e+00  -6.0 1.80e+02  -8.0 2.67e-01 2.98e-01h  1
 152 -2.3082865e-01 7.62e-01 1.15e+01  -6.0 7.24e+01  -7.5 1.00e+00 1.00e+00h  1
 153 -2.3235427e-01 1.53e+00 2.19e+01  -6.0 1.29e+02  -8.0 1.00e+00 1.00e+00h  1
 154 -2.3281806e-01 5.98e-01 6.79e+00  -6.0 5.99e+01  -7.6 1.00e+00 1.00e+00h  1
 155 -2.3454856e-01 1.08e+01 1.25e+02  -6.0 3.62e+02  -8.1 2.01e-01 9.48e-01h  1
 156 -2.3458041e-01 1.03e+01 6.93e+01  -6.0 1.69e+01  -6.7 8.92e-01 5.24e-02h  1
 157 -2.3530701e-01 2.99e+00 1.61e+01  -6.0 2.65e+01  -7.2 1.67e-01 1.00e+00h  1
 158 -2.3554781e-01 1.56e+01 1.28e+01  -6.0 8.89e+01  -7.7 1.00e+00 4.35e-01h  1
 159 -2.3657769e-01 1.57e+01 5.31e+01  -6.0 1.62e+02  -8.2 1.00e+00 6.77e-01h  1
iter    objective    inf_pr   inf_du lg(mu)  ||d||  lg(rg) alpha_du alpha_pr  ls
 160 -2.3672616e-01 1.54e+01 9.01e+01  -6.0 1.15e+03  -8.6 6.52e-02 2.02e-02h  1
 161 -2.4067491e-01 7.04e+00 1.88e+02  -6.0 9.78e+02  -9.1 7.59e-02 5.55e-01h  1
 162 -2.4418727e-01 4.48e+00 1.17e+02  -6.0 1.89e+03  -9.6 4.59e-01 3.87e-01h  1
 163 -2.4607036e-01 6.87e+00 8.90e+01  -6.0 3.10e+03 -10.1 2.13e-01 2.15e-01h  1
 164 -2.4853667e-01 5.75e+00 8.20e+01  -6.0 7.11e+03 -10.6 9.94e-03 2.48e-01h  1
 165 -2.4883150e-01 5.73e+00 7.14e+01  -6.0 3.69e+04 -11.0 1.34e-02 4.46e-03h  1
 166 -2.4898878e-01 5.57e+00 6.99e+01  -6.0 3.25e+03  -9.7 2.13e-02 2.70e-02h  1
 167 -2.4997573e-01 4.82e+00 3.38e+01  -6.0 3.46e+03 -10.2 2.42e-01 1.37e-01h  1
 168 -2.5006717e-01 6.50e+00 3.84e+01  -6.0 3.28e+04    -  7.01e-02 1.89e-02h  1
 169 -2.5102264e-01 4.13e+01 3.04e+01  -6.0 8.94e+03    -  9.04e-02 1.91e-01h  1
iter    objective    inf_pr   inf_du lg(mu)  ||d||  lg(rg) alpha_du alpha_pr  ls
 170 -2.5112035e-01 4.03e+01 3.86e+03  -6.0 8.33e+03    -  3.72e-01 3.15e-02h  1
 171 -2.5199043e-01 3.00e+01 3.13e+03  -6.0 2.69e+03    -  1.16e-01 3.60e-01h  1
 172 -2.5217262e-01 2.84e+01 7.17e+03  -6.0 3.86e+03    -  5.96e-02 1.27e-01h  1
 173 -2.5253679e-01 5.78e+01 4.37e+03  -6.0 4.71e+03    -  6.51e-02 3.79e-01h  1
 174 -2.5253481e-01 5.74e+01 4.34e+03  -6.0 4.58e+03  -9.8 1.42e-02 7.62e-03h  1
 175 -2.5257563e-01 5.46e+01 3.80e+03  -6.0 4.92e+03    -  5.52e-02 1.22e-01h  1
 176 -2.5261220e-01 3.41e+01 3.03e+03  -6.0 3.40e+04    -  2.67e-03 1.96e-01H  1
 177 -2.5262002e-01 2.34e+01 2.53e+03  -6.0 8.43e+03    -  2.59e-01 1.66e-01H  1
 178 -2.5255969e-01 3.49e+00 7.49e+02  -6.0 6.02e+02    -  5.43e-01 9.81e-01h  1
 179 -2.5251357e-01 3.48e+00 6.73e+02  -6.0 3.19e+03    -  1.73e-01 1.07e-01h  1
iter    objective    inf_pr   inf_du lg(mu)  ||d||  lg(rg) alpha_du alpha_pr  ls
 180 -2.5207156e-01 7.73e+00 4.53e+02  -6.0 6.80e+03    -  2.64e-01 3.22e-01h  1
 181r-2.5207156e-01 7.73e+00 9.99e+02   0.7 0.00e+00    -  0.00e+00 4.40e-07R  6
 182r-2.5193606e-01 7.73e+00 9.99e+02   0.7 4.85e+06    -  9.61e-07 4.93e-07f  1
 183 -2.5211222e-01 6.47e+00 1.87e+02  -6.0 6.08e+03    -  3.71e-03 1.78e-01h  1
 184 -2.5236030e-01 6.06e+00 1.61e+02  -6.0 1.57e+03    -  5.05e-01 1.90e-01h  1
 185 -2.5232745e-01 5.81e+00 1.49e+02  -6.0 1.84e+03    -  5.22e-01 1.36e-01h  2
 186 -2.5225594e-01 5.68e+00 1.53e+02  -6.0 3.47e+03    -  9.08e-01 9.32e-02h  3
 187 -2.5215212e-01 5.59e+00 1.44e+02  -6.0 2.87e+03    -  3.89e-01 8.31e-02h  2
 188 -2.5243358e-01 4.34e+00 8.87e+01  -6.0 1.08e+03    -  3.03e-01 3.76e-01H  1
 189 -2.5248106e-01 1.85e+00 2.92e+01  -6.0 3.13e+02  -9.3 1.76e-01 9.47e-01h  1
iter    objective    inf_pr   inf_du lg(mu)  ||d||  lg(rg) alpha_du alpha_pr  ls
 190 -2.5246715e-01 1.86e+00 2.73e+06  -6.0 4.96e+03    -  1.16e-01 7.13e-03h  5
 191 -2.5255558e-01 2.62e+00 9.68e+05  -6.0 4.21e+04    -  1.47e-02 4.89e-03h  2
 192 -2.5254442e-01 2.46e+00 2.46e+06  -6.0 4.30e+02  -9.8 9.74e-03 6.43e-02h  4
 193 -2.5239148e-01 1.13e+00 1.85e+04  -6.0 6.37e+02    -  8.99e-01 1.00e+00h  1
 194 -2.5238416e-01 1.44e+00 1.75e+04  -6.0 3.35e+03    -  9.06e-01 5.34e-02h  2
 195 -2.5236599e-01 3.10e-01 1.85e+02  -6.0 1.65e+02    -  7.74e-01 1.00e+00h  1
 196 -2.5234045e-01 3.10e-01 9.75e-02  -6.0 1.35e+02    -  1.00e+00 1.00e+00h  1
 197 -2.5233669e-01 1.71e-01 8.28e-02  -6.0 1.00e+02 -10.3 1.00e+00 1.00e+00h  1
 198 -2.5233602e-01 3.76e-02 1.62e-02  -6.0 4.67e+01  -9.9 1.00e+00 1.00e+00h  1
 199 -2.5234461e-01 1.18e+00 5.26e-03  -6.0 9.52e+02 -10.3 1.00e+00 1.00e+00H  1
iter    objective    inf_pr   inf_du lg(mu)  ||d||  lg(rg) alpha_du alpha_pr  ls
 200 -2.5233965e-01 5.68e-01 5.82e-01  -6.0 7.05e+01  -9.9 1.00e+00 5.00e-01h  2
 201 -2.5233465e-01 1.26e-02 1.14e-03  -6.0 2.77e+01  -9.5 1.00e+00 1.00e+00h  1
 202 -2.5233418e-01 1.11e-01 9.86e-02  -6.0 1.32e+02 -10.0 1.00e+00 1.00e+00H  1
 203 -2.5233019e-01 5.57e-02 2.23e-02  -6.0 5.69e+01  -9.5 1.00e+00 1.00e+00h  1
 204 -2.5235624e-01 2.28e+00 4.67e-02  -6.0 3.82e+02 -10.0 1.00e+00 1.00e+00H  1
 205 -2.5233358e-01 2.58e-02 3.85e-02  -6.0 4.10e+01  -9.6 1.00e+00 1.00e+00h  1
 206 -2.5234789e-01 1.73e+00 1.21e-02  -6.0 3.17e+02 -10.1 1.00e+00 1.00e+00H  1
 207 -2.5233998e-01 8.49e-01 1.30e+00  -6.0 6.06e+01  -9.6 1.00e+00 5.00e-01h  2
 208 -2.5233383e-01 7.82e-02 5.81e-01  -6.0 9.23e+02 -10.1 1.00e+00 1.00e+00H  1
 209 -2.5233738e-01 1.01e+00 2.38e-01  -6.0 2.66e+02  -9.7 1.00e+00 1.00e+00H  1
iter    objective    inf_pr   inf_du lg(mu)  ||d||  lg(rg) alpha_du alpha_pr  ls
 210 -2.5232789e-01 1.04e-01 1.00e+01  -6.0 2.06e+04 -10.2 1.72e-02 1.09e-02h  4
 211 -2.5230419e-01 3.80e-02 2.84e-02  -6.0 4.63e+01  -8.8 1.00e+00 1.00e+00h  1
 212 -2.5235999e-01 1.62e+00 3.84e-02  -6.0 8.98e+02    -  1.00e+00 1.00e+00H  1
 213 -2.5233899e-01 7.76e-01 8.03e-01  -6.0 8.56e+01  -9.3 1.00e+00 5.00e-01h  2
 214 -2.5233830e-01 1.18e+00 1.09e-01  -6.0 2.75e+02  -9.8 1.00e+00 1.00e+00H  1
 215 -2.5237373e-01 4.86e-04 1.07e+00  -6.0 6.58e+02    -  1.00e+00 1.00e+00H  1
 216 -2.5237334e-01 3.92e-03 1.11e+00  -6.0 4.33e+03    -  4.38e-03 3.24e-03h  8
 217 -2.5237249e-01 7.35e-03 6.53e+00  -6.0 3.69e+03 -10.3 7.06e-02 3.79e-03h  8
 218 -2.5237203e-01 1.08e-02 7.01e+00  -6.0 1.17e+04 -10.7 3.73e-03 1.19e-03h  8
 219 -2.5237192e-01 1.18e-01 1.20e+01  -6.0 3.99e+02  -8.5 1.82e-01 1.19e-01H  1
iter    objective    inf_pr   inf_du lg(mu)  ||d||  lg(rg) alpha_du alpha_pr  ls
 220 -2.5236884e-01 3.83e-01 1.66e+01  -6.0 6.55e+02    -  2.06e-02 2.50e-01f  3
 221 -2.5234187e-01 2.04e-01 5.53e+00  -6.0 5.28e+01  -9.0 5.95e-01 5.00e-01h  2
 222 -2.5232974e-01 1.57e-01 4.52e-01  -6.0 1.48e+02  -9.5 8.80e-01 1.00e+00H  1
 223 -2.5232802e-01 5.53e-03 2.25e+01  -6.0 1.48e+03    -  2.38e-01 6.25e-02h  5
 224 -2.5231562e-01 5.57e-03 1.83e-02  -6.0 5.67e+01  -9.0 1.00e+00 1.00e+00H  1
 225 -2.5232016e-01 2.41e-01 2.20e-01  -6.0 1.82e+02    -  1.00e+00 1.00e+00H  1
 226 -2.5231977e-01 1.51e-03 3.52e-03  -6.0 9.37e+00    -  1.00e+00 1.00e+00h  1
 227 -2.5231976e-01 1.16e-06 1.74e-07  -6.0 2.52e-01    -  1.00e+00 1.00e+00h  1
 228 -2.5257184e-01 2.64e-01 8.00e+01  -7.5 5.82e+03    -  3.68e-01 8.84e-02h  1
 229 -2.5298277e-01 1.15e+01 3.81e+01  -7.5 4.47e+03    -  2.45e-02 1.84e-01h  1
iter    objective    inf_pr   inf_du lg(mu)  ||d||  lg(rg) alpha_du alpha_pr  ls
 230 -2.5322664e-01 8.50e+00 1.96e+01  -7.5 3.45e+02  -9.5 2.20e-01 2.60e-01h  1
 231 -2.5327607e-01 8.06e+00 4.14e+01  -7.5 8.25e+02 -10.0 2.19e-01 5.24e-02h  1
 232 -2.5378461e-01 7.17e+00 2.37e+01  -7.5 5.25e+03    -  1.58e-02 2.76e-01h  1
 233 -2.5390779e-01 7.01e+00 2.12e+01  -7.5 2.03e+04    -  8.08e-03 2.44e-02h  1
 234 -2.5409211e-01 6.13e+00 1.45e+01  -7.5 3.01e+03 -10.5 1.74e-02 1.27e-01f  1
 235 -2.5437859e-01 5.15e+01 1.94e+01  -7.5 2.18e+05 -10.9 3.22e-03 7.32e-03h  1
 236 -2.5438625e-01 5.11e+01 3.29e+01  -7.5 2.17e+03    -  3.97e-04 7.08e-03h  1
 237 -2.5445568e-01 4.79e+01 1.99e+01  -7.5 2.22e+03    -  1.64e-02 6.33e-02h  1
 238 -2.5447752e-01 4.69e+01 1.78e+01  -7.5 1.25e+03 -10.5 7.10e-02 2.26e-02h  1
 239 -2.5454975e-01 4.36e+01 1.54e+01  -7.5 3.05e+03    -  1.05e-01 7.03e-02h  1
iter    objective    inf_pr   inf_du lg(mu)  ||d||  lg(rg) alpha_du alpha_pr  ls
 240 -2.5490316e-01 2.79e+01 1.99e+01  -7.5 2.18e+03    -  2.28e-01 3.73e-01h  1
 241 -2.5507147e-01 2.58e+01 2.19e+01  -7.5 1.96e+03    -  1.29e-01 2.23e-01h  1
 242 -2.5523099e-01 2.44e+01 1.60e+01  -7.5 2.01e+03    -  2.35e-01 2.10e-01h  1
 243 -2.5537824e-01 2.59e+01 2.07e+01  -7.5 2.88e+03    -  5.61e-03 1.75e-01h  1
 244 -2.5537931e-01 2.58e+01 1.28e+02  -7.5 7.16e+03 -11.0 1.14e-02 1.32e-03h  1
 245 -2.5545206e-01 2.41e+01 2.10e+01  -7.5 1.50e+03    -  2.67e-02 8.07e-02h  1
 246 -2.5550223e-01 2.30e+01 2.09e+03  -7.5 1.50e+03    -  2.71e-01 5.39e-02h  1
 247 -2.5553203e-01 2.23e+01 4.45e+03  -7.5 1.51e+03    -  3.57e-01 3.14e-02h  1
 248 -2.5580879e-01 2.00e+01 5.27e+05  -7.5 1.43e+03    -  3.00e-03 2.90e-01h  1
 249 -2.5627428e-01 8.86e+00 6.31e+06  -7.5 1.08e+03    -  3.64e-04 5.59e-01h  1
iter    objective    inf_pr   inf_du lg(mu)  ||d||  lg(rg) alpha_du alpha_pr  ls
 250 -2.5629054e-01 8.33e+00 5.94e+06  -7.5 4.47e+02    -  2.88e-01 5.92e-02h  1
 251 -2.5629090e-01 8.32e+00 5.93e+06  -7.5 1.10e+03    -  2.85e-03 1.31e-03h  1
 252 -2.5641270e-01 1.56e+00 1.11e+06  -7.5 3.92e+02    -  5.29e-01 8.13e-01h  1
 253 -2.5644249e-01 1.50e+00 1.03e+06  -7.5 2.90e+03    -  5.04e-04 7.22e-02h  1
 254 -2.5644521e-01 1.40e+00 9.57e+05  -7.5 1.27e+02  -7.9 6.12e-03 7.16e-02h  1
 255 -2.5643929e-01 3.44e+00 6.84e+05  -7.5 1.41e+03    -  2.98e-01 2.85e-01H  1
 256 -2.5643946e-01 1.15e+00 6.36e+05  -7.5 2.43e+03    -  2.82e-02 6.98e-02H  1
 257 -2.5644244e-01 2.53e+00 1.91e+05  -7.5 1.21e+03    -  2.04e-01 7.00e-01H  1
 258 -2.5644138e-01 2.41e+00 2.81e+00  -7.5 8.12e+02    -  2.28e-01 1.00e+00H  1
 259 -2.5644146e-01 1.00e+00 7.51e-01  -7.5 8.57e-01  -8.3 7.31e-01 5.84e-01h  1
iter    objective    inf_pr   inf_du lg(mu)  ||d||  lg(rg) alpha_du alpha_pr  ls
 260 -2.5644036e-01 5.68e-06 4.03e-01  -7.5 3.70e+00  -8.8 4.68e-01 1.00e+00h  1
 261 -2.5644030e-01 1.59e+00 3.06e-01  -7.5 2.96e+03    -  2.41e-01 1.22e-01h  4
 262 -2.5643951e-01 7.68e-05 2.39e-02  -7.5 2.67e+00  -9.3 9.22e-01 1.00e+00h  1
 263 -2.5643921e-01 9.15e-05 1.48e-03  -7.5 2.73e+00  -9.8 1.00e+00 1.00e+00h  1
 264 -2.5643922e-01 8.24e-04 1.28e-06  -7.5 8.19e+00 -10.2 1.00e+00 1.00e+00h  1
 265 -2.5643923e-01 7.44e-03 1.16e-05  -7.5 2.46e+01 -10.7 1.00e+00 1.00e+00h  1
 266 -2.5643925e-01 6.77e-02 1.06e-04  -7.5 7.42e+01 -11.2 1.00e+00 1.00e+00h  1
 267 -2.5643932e-01 6.35e-01 9.93e-04  -7.5 2.27e+02 -11.7 1.00e+00 1.00e+00h  1
 268 -2.5643960e-01 5.92e-01 1.35e-02  -7.5 7.38e+02 -12.2 1.00e+00 1.00e+00H  1
 269 -2.5643972e-01 1.97e+00 1.11e+00  -7.5 2.93e+03 -12.6 9.20e-01 1.15e-01h  4
iter    objective    inf_pr   inf_du lg(mu)  ||d||  lg(rg) alpha_du alpha_pr  ls
 270 -2.5643983e-01 3.29e+00 4.20e+00  -7.5 8.31e+03    -  1.00e+00 3.95e-02h  4
 271 -2.5644003e-01 4.16e+00 5.52e-03  -7.5 5.61e+02    -  1.00e+00 1.00e+00h  1
 272 -2.5644009e-01 4.46e+00 1.36e+00  -7.5 6.07e+04    -  3.64e-02 2.54e-03h  5
 273 -2.5644023e-01 5.27e+00 1.32e+00  -7.5 2.74e+03    -  1.00e+00 1.14e-01h  4
 274 -2.5644055e-01 9.42e+00 5.12e-01  -7.5 1.41e+03    -  1.00e+00 5.00e-01h  2
 275 -2.5644068e-01 9.96e+00 1.10e+00  -7.5 4.44e+03    -  3.73e-01 6.42e-02h  4
 276 -2.5644083e-01 1.00e+01 1.17e+00  -7.5 2.55e+03    -  1.00e+00 1.13e-01h  4
 277 -2.5644130e-01 1.78e+01 6.38e-01  -7.5 1.89e+03    -  2.82e-01 5.00e-01h  2
 278 -2.5644128e-01 4.82e-01 1.08e+00  -7.5 1.35e+02    -  3.78e-01 1.00e+00h  1
 279 -2.5644129e-01 6.05e-02 3.60e-05  -7.5 1.96e+01    -  1.00e+00 1.00e+00h  1
iter    objective    inf_pr   inf_du lg(mu)  ||d||  lg(rg) alpha_du alpha_pr  ls
 280 -2.5644159e-01 5.11e+00 3.22e-01  -7.5 5.89e+02 -11.3 1.33e-01 1.00e+00h  1
 281 -2.5644169e-01 4.69e-01 2.25e-03  -7.5 1.71e+02 -11.8 1.00e+00 1.00e+00h  1
 282 -2.5644198e-01 6.63e-01 1.56e-02  -7.5 5.10e+02    -  1.00e+00 1.00e+00H  1
 283 -2.5644194e-01 9.59e-02 6.77e-04  -7.5 7.89e+01    -  1.00e+00 1.00e+00h  1
 284 -2.5644194e-01 7.92e-07 4.15e-08  -7.5 3.21e-01    -  1.00e+00 1.00e+00h  1
 285 -2.5644194e-01 2.83e-10 4.88e-13  -7.5 1.70e-03    -  1.00e+00 1.00e+00h  1
 286 -2.5644498e-01 1.41e+00 3.30e+00  -9.0 1.46e+03    -  5.65e-01 2.06e-01h  1
 287 -2.5644690e-01 6.32e+01 2.83e+00  -9.0 1.56e+04    -  1.15e-01 1.28e-01h  1
 288 -2.5644719e-01 5.76e+01 3.54e+00  -9.0 1.59e+03    -  3.73e-01 9.56e-02h  1
 289 -2.5644810e-01 4.41e+01 2.36e+00  -9.0 1.71e+03    -  3.82e-01 3.51e-01h  1
iter    objective    inf_pr   inf_du lg(mu)  ||d||  lg(rg) alpha_du alpha_pr  ls
 290 -2.5644945e-01 4.31e+01 2.18e+00  -9.0 1.67e+03 -12.3 4.39e-01 8.23e-01h  1
 291 -2.5644945e-01 4.31e+01 2.17e+00  -9.0 1.34e+05    -  2.32e-03 1.73e-04h  8
 292 -2.5644970e-01 7.98e+00 4.89e+00  -9.0 6.20e+02 -12.7 1.13e-02 1.00e+00h  1
 293 -2.5644993e-01 1.33e+01 3.69e-01  -9.0 8.11e+02    -  5.97e-01 1.00e+00h  1
 294 -2.5645026e-01 3.11e+01 9.85e-02  -9.0 1.21e+03    -  7.29e-01 1.00e+00h  1
 295 -2.5645030e-01 3.08e+01 7.88e-02  -9.0 5.21e+03    -  2.06e-01 3.59e-02h  3
 296 -2.5645036e-01 2.96e+01 6.18e-02  -9.0 2.93e+03    -  2.22e-01 6.57e-02h  3
 297 -2.5645039e-01 2.86e+01 5.59e-02  -9.0 3.10e+03 -13.2 2.57e-01 3.75e-02h  5
 298 -2.5645047e-01 2.79e+01 4.70e-02  -9.0 2.91e+03    -  1.07e-01 1.18e-01h  2
 299 -2.5645052e-01 2.78e+01 3.24e-01  -9.0 5.55e+03    -  2.63e-01 3.33e-02h  2
iter    objective    inf_pr   inf_du lg(mu)  ||d||  lg(rg) alpha_du alpha_pr  ls
 300 -2.5645057e-01 2.68e+01 3.07e-01  -9.0 7.43e+03    -  5.21e-02 3.83e-02h  3
 301 -2.5645060e-01 2.59e+01 7.52e-02  -9.0 5.65e+03 -13.7 5.80e-01 3.35e-02h  3
 302 -2.5645061e-01 2.59e+01 7.71e-02  -9.0 3.95e+04    -  4.48e-02 1.12e-03h  7
 303 -2.5645105e-01 8.85e+01 5.45e-02  -9.0 7.63e+03    -  2.09e-01 3.11e-01H  1
 304 -2.5645133e-01 2.34e+01 3.94e-02  -9.0 1.22e+03    -  6.86e-01 1.00e+00h  1
 305 -2.5645171e-01 1.24e+01 8.39e-02  -9.0 4.19e+03 -13.3 2.53e-02 1.00e+00H  1
 306 -2.5645173e-01 3.89e-01 1.12e-02  -9.0 1.44e+02 -11.9 8.84e-01 1.00e+00h  1
 307 -2.5645205e-01 6.25e+01 2.80e-02  -9.0 7.68e+03    -  4.60e-02 2.59e-01h  1
 308 -2.5645204e-01 6.25e+01 2.77e-02  -9.0 6.99e+04    -  7.09e-05 2.53e-04h  5
 309 -2.5645201e-01 8.82e-01 2.11e-04  -9.0 1.94e+02 -12.4 1.00e+00 1.00e+00h  1
iter    objective    inf_pr   inf_du lg(mu)  ||d||  lg(rg) alpha_du alpha_pr  ls
 310 -2.5645206e-01 8.74e+00 1.80e-01  -9.0 6.11e+02 -12.9 5.74e-01 1.00e+00h  1
Error in an AMPL evaluation. Run with "halt_on_ampl_error yes" to see details.
Warning: SOC step rejected due to evaluation error
 311 -2.5645207e-01 8.63e+00 2.64e-01  -9.0 3.03e+03    -  3.17e-01 3.50e-02h  5
 312 -2.5645208e-01 8.58e+00 6.17e-01  -9.0 3.17e+03    -  9.52e-01 3.16e-02h  5
Error in an AMPL evaluation. Run with "halt_on_ampl_error yes" to see details.
Warning: SOC step rejected due to evaluation error
 313 -2.5645209e-01 8.47e+00 5.85e-01  -9.0 2.63e+03    -  3.79e-01 3.82e-02h  5
 314 -2.5645222e-01 4.20e+01 4.51e-02  -9.0 1.66e+03    -  3.39e-02 1.00e+00H  1
 315 -2.5645225e-01 4.05e+01 1.55e+00  -9.0 3.35e+03    -  3.29e-01 5.22e-02h  2
 316 -2.5645240e-01 3.45e+01 3.92e-01  -9.0 1.67e+03    -  1.00e+00 4.66e-01h  1
 317 -2.5645262e-01 2.66e+01 2.73e+00  -9.0 1.45e+03    -  1.73e-01 8.00e-01H  1
 318 -2.5645262e-01 2.04e+01 2.26e+00  -9.0 1.03e+03    -  4.23e-02 3.68e-01h  1
 319 -2.5645230e-01 1.12e+01 2.19e+00  -9.0 1.10e+03    -  8.11e-02 1.00e+00H  1
iter    objective    inf_pr   inf_du lg(mu)  ||d||  lg(rg) alpha_du alpha_pr  ls
 320 -2.5645237e-01 2.79e-01 2.36e-02  -9.0 1.17e+02    -  9.74e-01 1.00e+00h  1
 321 -2.5645236e-01 2.07e+00 2.35e-04  -9.0 3.05e+02    -  1.00e+00 1.00e+00h  1
 322 -2.5645235e-01 1.65e-01 3.27e-05  -9.0 8.88e+01    -  1.00e+00 1.00e+00h  1
 323 -2.5645235e-01 1.90e-04 6.05e-08  -9.0 2.79e+00    -  1.00e+00 1.00e+00h  1
 324 -2.5645235e-01 2.83e-10 3.34e-14  -9.0 5.03e-04    -  1.00e+00 1.00e+00h  1

Number of Iterations....: 324

                                   (scaled)                 (unscaled)
Objective...............:  -2.5645234979189557e-01   -2.5645234979189557e-01
Dual infeasibility......:   3.3400229083428356e-14    3.3400229083428356e-14
Constraint violation....:   2.8317669454984429e-10    2.8317669454984429e-10
Complementarity.........:   9.0909091166974578e-10    9.0909091166974578e-10
Overall NLP error.......:   9.0909091166974578e-10    9.0909091166974578e-10


Number of objective function evaluations             = 901
Number of objective gradient evaluations             = 325
Number of equality constraint evaluations            = 903
Number of inequality constraint evaluations          = 902
Number of equality constraint Jacobian evaluations   = 327
Number of inequality constraint Jacobian evaluations = 327
Number of Lagrangian Hessian evaluations             = 324
Total CPU secs in IPOPT (w/o function evaluations)   =    670.684
Total CPU secs in NLP function evaluations           =     17.780

EXIT: Optimal Solution Found.
